100 8
315 442
852 703
859 682
559 882
205 755
603 418
675 439
675 287
672 422
275 561
39 409
523 559
516 636
47 280
120 448
244 647
566 645
395 514
504 252
402 448
123 399
710 469
391 575
940 687
73 296
213 604
495 946
834 626
269 471
170 731
524 745
116 436
670 323
260 799
84 313
442 270
568 252
254 656
126 770
778 721
610 536
566 291
603 421
651 405
127 468
856 548
759 412
303 461
873 690
609 265
400 229
887 687
486 163
593 569
715 425
507 487
343 119
844 652
245 566
507 647
216 364
375 541
190 846
410 481
413 700
866 699
901 785
418 505
406 770
944 555
741 805
457 214
199 323
264 602
187 215
882 710
245 614
290 516
582 331
740 699
550 960
200 758
192 730
800 650
461 234
556 782
870 765
296 228
888 717
288 687
709 354
405 238
161 698
405 778
115 197
215 425
71 248
566 790
447 644
824 722
